40	100	100	100
49	3	100
15	27	100
5	46	100
61	96	100
9	34	100
7	53	100
65	14	100
2	5	100
17	42	100
83	58	100
24	63	100
62	18	100
32	39	100
82	12	100
10	47	100
49	17	100
7	51	100
95	27	100
20	65	100
78	87	100
18	7	100
83	25	100
73	58	100
78	84	100
40	35	100
40	6	100
15	5	100
24	27	100
23	25	100
9	25	100
70	73	100
32	80	100
42	35	100
76	88	100
12	37	100
57	11	100
24	21	100
89	31	100
57	69	100
60	9	100
